(declare-fun var0 () String)
(assert (str.in.re var0 (re.++ (re.* (re.union (re.+ (re.* (str.to.re "333"))) (re.* (re.* (str.to.re "4"))))) (re.* (re.* (re.union (re.union (str.to.re "00") (str.to.re "111")) (re.+ (str.to.re "222"))))))))
(assert (<= 15 (str.len var0)))
(check-sat)